20 95 
1 3 1
1 4 1
1 6 1
1 8 1
1 10 1
1 13 1
1 14 1
1 17 1
1 20 1
2 3 1
2 7 1
2 12 1
2 13 1
2 15 1
2 16 1
2 17 1
2 18 1
2 19 1
2 20 1
3 5 1
3 6 1
3 7 1
3 9 1
3 10 1
3 11 1
3 16 1
3 17 1
3 18 1
3 19 1
4 7 1
4 9 1
4 11 1
4 12 1
4 13 1
4 15 1
4 16 1
4 18 1
4 19 1
5 6 1
5 7 1
5 8 1
5 9 1
5 10 1
5 11 1
5 13 1
5 18 1
5 19 1
6 7 1
6 10 1
6 15 1
6 17 1
6 18 1
6 19 1
7 10 1
7 12 1
7 13 1
7 15 1
7 18 1
7 19 1
8 9 1
8 12 1
8 14 1
8 15 1
9 10 1
9 12 1
9 15 1
9 17 1
9 18 1
9 20 1
10 13 1
10 15 1
10 18 1
10 19 1
11 12 1
11 14 1
11 15 1
12 13 1
12 14 1
12 16 1
12 17 1
12 20 1
13 14 1
13 15 1
13 16 1
13 19 1
14 16 1
14 17 1
14 19 1
15 17 1
15 19 1
15 20 1
16 18 1
16 19 1
16 20 1
18 20 1
